Route #1: 6 99 5 84 17 45 83 60 89
Route #2: 98 85 93 59 96
Route #3: 97 92 37 100 91 44 14 42 87
Route #4: 61 16 86 38 43 15 57 2
Route #5: 53 58 13 95 94
Route #6: 72 75 23 41 22 74 73
Route #7: 40 21 56 39 67 25 55 4
Route #8: 26 54 24 29 68 80 12
Route #9: 28 76 50 27
Route #10: 1 51 9 81 33 79 77
Route #11: 3 78 34 35 71 65 66 20 70
Route #12: 69 30 32 90 63 10 31
Route #13: 88 62 11 64 49 36 46 8 18
Route #14: 52 7 19 47 48 82
Cost 1081
Time 0.287351
